100 400
9 20
10 38
14 27
10 39
18 24
3 5
7 29
13 41
17 57
5 8
5 9
6 19
10 21
8 21
13 7
13 43
15 54
14 55
14 4
13 37
17 63
10 36
7 8
10 7
8 26
13 2
15 56
3 9
12 36
8 5
15 40
6 3
9 16
3 11
7 8
10 28
7 28
6 1
6 12
13 25
10 26
9 9
12 43
17 40
4 11
6 6
17 25
11 46
9 25
13 55
8 10
10 37
7 26
1 4
15 38
13 35
5 16
5 15
10 22
9 14
12 23
5 10
17 57
10 32
7 16
12 32
1 1
11 12
9 34
18 42
4 8
12 8
11 22
7 10
8 30
5 20
18 6
12 26
6 12
10 11
9 6
8 15
6 7
9 9
3 3
11 41
10 8
5 21
16 30
17 59
15 52
12 50
14 16
13 39
17 56
13 42
6 15
6 10
7 4
9 26
